letting initialStacks = [42, 18, 34, 29, 50, 10, 43, 15, 38, 31, 13, 36, 5, 33, 35, 45, 9, 1, 51, 4, 8, 14, 41, 20, 11, 19, 30, 7, 47, 49, 37, 2, 24, 32, 26, 25, 6, 28, 40, 27, 17, 12, 23, 3, 16, 21, 39, 44, 22, 48, 46]
